7

0   5   13   11   9   16   12
5   0   16   5   9   6   20
13   16   0   22   16   6   17
11   5   22   0   18   8   0
9   9   16   18   0   25   21
16   6   6   8   25   0   14
12   20   17   0   21   14   0

0   39   48   34   8   29   32
39   0   15   19   43   16   57
48   15   0   14   40   19   72
34   19   14   0   26   5   58
8   43   40   26   0   27   36
29   16   19   5   27   0   53
32   57   72   58   36   53   0